write_tb = .true.
write_hr = .true.
write_rmn = .true.
write_xyz = .true.

fermi_energy = -4.7336
use_ws_distance = .true.
spn_formatted=true

# dis_proj_min = 0.001
# dis_proj_max = 0.90
# dis_proj_normalize = true

num_bands         =   80 
num_wann          =   46
exclude_bands =  1-20

dis_win_max       =   20
dis_win_min       =  -60
dis_froz_max      =   -1
dis_froz_min      =  -25
dis_num_iter      = 5000
dis_conv_tol      = 1.0e-8
conv_tol          = 1.0e-8
conv_window       = 5
num_iter          = 5000
trial_step = 0.8

# restart = plot
bands_plot = true
# wannier_plot = true
# wannier_plot_list = 1-2, 13-32
bands_num_points = 1000

begin kpoint_path
M  0.500000000000    0.000000000000   0.00000000000   G  0.000000000000    0.000000000000   0.00000000000
G  0.000000000000    0.000000000000   0.00000000000   K  0.333333333333    0.333333333333   0.00000000000
K  0.333333333333    0.333333333333   0.00000000000   M  0.500000000000    0.000000000000   0.00000000000
end kpoint_path

#auto_projections = .true.
spinors = T
begin projections
Ge: sp3
Te: sp3
C:pz
f=0.16666667,0.00000000,0.0:s
f=0.83333333,0.33333333,0.0:s
f=0.50000000,0.66666667,0.0:s
f=0.16666667,0.50000000,0.0:s
f=0.83333333,0.83333333,0.0:s
f=0.66666667,0.50000000,0.0:s
f=0.33333333,0.83333333,0.0:s
f=0.50000000,0.16666667,0.0:s
f=0.00000000,0.16666667,0.0:s  
end projections

begin unit_cell_cart
bohr
  8.051830084195492e0 0.000000000000000e0 0.000000000000000e0
 -4.025915042097746e0 6.973089399869585e0 0.000000000000000e0
  0.000000000000000e0 0.000000000000000e0 3.779452249251540e1
end unit_cell_cart

mp_grid      = 12 12 1
begin kpoints
  0.00000000  0.00000000  0.00000000
  0.00000000  0.08333333  0.00000000
  0.00000000  0.16666667  0.00000000
  0.00000000  0.25000000  0.00000000
  0.00000000  0.33333333  0.00000000
  0.00000000  0.41666667  0.00000000
  0.00000000  0.50000000  0.00000000
  0.00000000  0.58333333  0.00000000
  0.00000000  0.66666667  0.00000000
  0.00000000  0.75000000  0.00000000
  0.00000000  0.83333333  0.00000000
  0.00000000  0.91666667  0.00000000
  0.08333333  0.00000000  0.00000000
  0.08333333  0.08333333  0.00000000
  0.08333333  0.16666667  0.00000000
  0.08333333  0.25000000  0.00000000
  0.08333333  0.33333333  0.00000000
  0.08333333  0.41666667  0.00000000
  0.08333333  0.50000000  0.00000000
  0.08333333  0.58333333  0.00000000
  0.08333333  0.66666667  0.00000000
  0.08333333  0.75000000  0.00000000
  0.08333333  0.83333333  0.00000000
  0.08333333  0.91666667  0.00000000
  0.16666667  0.00000000  0.00000000
  0.16666667  0.08333333  0.00000000
  0.16666667  0.16666667  0.00000000
  0.16666667  0.25000000  0.00000000
  0.16666667  0.33333333  0.00000000
  0.16666667  0.41666667  0.00000000
  0.16666667  0.50000000  0.00000000
  0.16666667  0.58333333  0.00000000
  0.16666667  0.66666667  0.00000000
  0.16666667  0.75000000  0.00000000
  0.16666667  0.83333333  0.00000000
  0.16666667  0.91666667  0.00000000
  0.25000000  0.00000000  0.00000000
  0.25000000  0.08333333  0.00000000
  0.25000000  0.16666667  0.00000000
  0.25000000  0.25000000  0.00000000
  0.25000000  0.33333333  0.00000000
  0.25000000  0.41666667  0.00000000
  0.25000000  0.50000000  0.00000000
  0.25000000  0.58333333  0.00000000
  0.25000000  0.66666667  0.00000000
  0.25000000  0.75000000  0.00000000
  0.25000000  0.83333333  0.00000000
  0.25000000  0.91666667  0.00000000
  0.33333333  0.00000000  0.00000000
  0.33333333  0.08333333  0.00000000
  0.33333333  0.16666667  0.00000000
  0.33333333  0.25000000  0.00000000
  0.33333333  0.33333333  0.00000000
  0.33333333  0.41666667  0.00000000
  0.33333333  0.50000000  0.00000000
  0.33333333  0.58333333  0.00000000
  0.33333333  0.66666667  0.00000000
  0.33333333  0.75000000  0.00000000
  0.33333333  0.83333333  0.00000000
  0.33333333  0.91666667  0.00000000
  0.41666667  0.00000000  0.00000000
  0.41666667  0.08333333  0.00000000
  0.41666667  0.16666667  0.00000000
  0.41666667  0.25000000  0.00000000
  0.41666667  0.33333333  0.00000000
  0.41666667  0.41666667  0.00000000
  0.41666667  0.50000000  0.00000000
  0.41666667  0.58333333  0.00000000
  0.41666667  0.66666667  0.00000000
  0.41666667  0.75000000  0.00000000
  0.41666667  0.83333333  0.00000000
  0.41666667  0.91666667  0.00000000
  0.50000000  0.00000000  0.00000000
  0.50000000  0.08333333  0.00000000
  0.50000000  0.16666667  0.00000000
  0.50000000  0.25000000  0.00000000
  0.50000000  0.33333333  0.00000000
  0.50000000  0.41666667  0.00000000
  0.50000000  0.50000000  0.00000000
  0.50000000  0.58333333  0.00000000
  0.50000000  0.66666667  0.00000000
  0.50000000  0.75000000  0.00000000
  0.50000000  0.83333333  0.00000000
  0.50000000  0.91666667  0.00000000
  0.58333333  0.00000000  0.00000000
  0.58333333  0.08333333  0.00000000
  0.58333333  0.16666667  0.00000000
  0.58333333  0.25000000  0.00000000
  0.58333333  0.33333333  0.00000000
  0.58333333  0.41666667  0.00000000
  0.58333333  0.50000000  0.00000000
  0.58333333  0.58333333  0.00000000
  0.58333333  0.66666667  0.00000000
  0.58333333  0.75000000  0.00000000
  0.58333333  0.83333333  0.00000000
  0.58333333  0.91666667  0.00000000
  0.66666667  0.00000000  0.00000000
  0.66666667  0.08333333  0.00000000
  0.66666667  0.16666667  0.00000000
  0.66666667  0.25000000  0.00000000
  0.66666667  0.33333333  0.00000000
  0.66666667  0.41666667  0.00000000
  0.66666667  0.50000000  0.00000000
  0.66666667  0.58333333  0.00000000
  0.66666667  0.66666667  0.00000000
  0.66666667  0.75000000  0.00000000
  0.66666667  0.83333333  0.00000000
  0.66666667  0.91666667  0.00000000
  0.75000000  0.00000000  0.00000000
  0.75000000  0.08333333  0.00000000
  0.75000000  0.16666667  0.00000000
  0.75000000  0.25000000  0.00000000
  0.75000000  0.33333333  0.00000000
  0.75000000  0.41666667  0.00000000
  0.75000000  0.50000000  0.00000000
  0.75000000  0.58333333  0.00000000
  0.75000000  0.66666667  0.00000000
  0.75000000  0.75000000  0.00000000
  0.75000000  0.83333333  0.00000000
  0.75000000  0.91666667  0.00000000
  0.83333333  0.00000000  0.00000000
  0.83333333  0.08333333  0.00000000
  0.83333333  0.16666667  0.00000000
  0.83333333  0.25000000  0.00000000
  0.83333333  0.33333333  0.00000000
  0.83333333  0.41666667  0.00000000
  0.83333333  0.50000000  0.00000000
  0.83333333  0.58333333  0.00000000
  0.83333333  0.66666667  0.00000000
  0.83333333  0.75000000  0.00000000
  0.83333333  0.83333333  0.00000000
  0.83333333  0.91666667  0.00000000
  0.91666667  0.00000000  0.00000000
  0.91666667  0.08333333  0.00000000
  0.91666667  0.16666667  0.00000000
  0.91666667  0.25000000  0.00000000
  0.91666667  0.33333333  0.00000000
  0.91666667  0.41666667  0.00000000
  0.91666667  0.50000000  0.00000000
  0.91666667  0.58333333  0.00000000
  0.91666667  0.66666667  0.00000000
  0.91666667  0.75000000  0.00000000
  0.91666667  0.83333333  0.00000000
  0.91666667  0.91666667  0.00000000
end kpoints

   
begin atoms_frac  
Te 0.3333333333 0.6666666667 0.2411082636
Ge 0.0000000000 0.0000000000 0.1682292322
C 0.0000000000 0.0000000000 0.0000000000
C 0.6666666667 0.6666666667 0.0000000000
C 0.6666666667 0.3333333333 0.0000000000
C 0.3333333333 0.6666666667 0.0000000000
C 0.3333333333 0.0000000000 0.0000000000
C 0.0000000000 0.3333333333 0.0000000000
end atoms_frac  
